
n_res = 4;
rcap = [19, 23, 166, 157];
rtype = [1, 1, 2, 2];
n_tasks = 100;
modes =  [{1, 2, 3}, {4, 5, 6}, {7, 8, 9}, {10, 11, 12}, {13, 14, 15}, {16, 17, 18}, {19, 20, 21}, {22, 23, 24}, {25, 26, 27}, {28, 29, 30}, {31, 32, 33}, {34, 35, 36}, {37, 38, 39}, {40, 41, 42}, {43, 44, 45}, {46, 47, 48}, {49, 50, 51}, {52, 53, 54}, {55, 56, 57}, {58, 59, 60}, {61, 62, 63}, {64, 65, 66}, {67, 68, 69}, {70, 71, 72}, {73, 74, 75}, {76, 77, 78}, {79, 80, 81}, {82, 83, 84}, {85, 86, 87}, {88, 89, 90}, {91, 92, 93}, {94, 95, 96}, {97, 98, 99}, {100, 101, 102}, {103, 104, 105}, {106, 107, 108}, {109, 110, 111}, {112, 113, 114}, {115, 116, 117}, {118, 119, 120}, {121, 122, 123}, {124, 125, 126}, {127, 128, 129}, {130, 131, 132}, {133, 134, 135}, {136, 137, 138}, {139, 140, 141}, {142, 143, 144}, {145, 146, 147}, {148, 149, 150}, {151, 152, 153}, {154, 155, 156}, {157, 158, 159}, {160, 161, 162}, {163, 164, 165}, {166, 167, 168}, {169, 170, 171}, {172, 173, 174}, {175, 176, 177}, {178, 179, 180}, {181, 182, 183}, {184, 185, 186}, {187, 188, 189}, {190, 191, 192}, {193, 194, 195}, {196, 197, 198}, {199, 200, 201}, {202, 203, 204}, {205, 206, 207}, {208, 209, 210}, {211, 212, 213}, {214, 215, 216}, {217, 218, 219}, {220, 221, 222}, {223, 224, 225}, {226, 227, 228}, {229, 230, 231}, {232, 233, 234}, {235, 236, 237}, {238, 239, 240}, {241, 242, 243}, {244, 245, 246}, {247, 248, 249}, {250, 251, 252}, {253, 254, 255}, {256, 257, 258}, {259, 260, 261}, {262, 263, 264}, {265, 266, 267}, {268, 269, 270}, {271, 272, 273}, {274, 275, 276}, {277, 278, 279}, {280, 281, 282}, {283, 284, 285}, {286, 287, 288}, {289, 290, 291}, {292, 293, 294}, {295, 296, 297}, {298, 299, 300}];
succ =  [{24, 21, 14, 11, 8}, {20, 15, 14, 13, 12, 10}, {30, 23, 22, 17, 14, 11}, {34, 30, 28, 27, 26, 25, 24, 23, 20, 19, 18, 17}, {29, 28, 24, 22, 21, 18, 17, 12}, {34, 30, 27, 25, 22, 19, 15, 13}, {34, 30, 27, 25, 24, 22, 20, 18, 13}, {34, 30, 27, 20, 19, 18, 17, 13}, {34, 29, 28, 27, 26, 23, 18, 17}, {34, 27, 26, 19, 18, 17}, {37, 34, 31, 28, 27, 26, 20, 19}, {37, 35, 33, 32, 30, 27, 26, 25, 23}, {42, 37, 35, 33, 32, 28, 26, 23}, {35, 26, 25, 18}, {35, 28, 18}, {48, 35, 31, 30, 26, 22}, {48, 42, 40, 39, 37, 36, 35, 33, 32, 31}, {48, 42, 40, 39, 37, 36, 33, 32, 31}, {48, 46, 39, 38, 35, 32, 29}, {48, 42, 39, 38, 36, 35, 32}, {42, 41, 35, 27}, {47, 45, 42, 41, 40, 39, 38, 37}, {48, 43, 41, 40, 39, 38, 31}, {48, 46, 43, 42, 40, 39, 31}, {48, 47, 45, 43, 42, 39, 38}, {47, 46, 43, 40, 36}, {48, 47, 45, 43, 39, 38}, {49, 48, 47, 46, 43, 38}, {66, 47, 45, 40}, {47, 45, 39}, {66, 47, 45, 44}, {66, 49, 47, 41}, {49, 43, 38}, {46, 45, 44}, {49, 44, 43}, {58, 45, 41}, {54, 52, 51, 49, 43}, {66, 58, 53, 50, 44}, {66, 53, 50, 44}, {58, 50, 49, 44}, {53, 50, 44}, {53, 50, 44}, {66, 65, 62, 61, 60, 58, 57, 55, 53, 50}, {64, 61, 60, 59, 57, 55, 54, 52, 51}, {61, 60, 55, 53, 50, 49}, {66, 61, 60, 58, 55, 54, 50}, {64, 58, 57, 56, 55, 54, 53}, {64, 63, 61, 58, 56, 55, 54}, {75, 74, 70, 68, 65, 62, 59, 57, 56}, {75, 74, 68, 67, 64, 63, 59, 56}, {83, 81, 78, 74, 73, 70, 68, 65, 63}, {68, 67, 63, 62, 56}, {81, 78, 76, 75, 74, 73, 71, 70, 69}, {78, 75, 73, 71, 67, 65}, {83, 78, 76, 74, 71, 70, 69}, {88, 81, 80, 78, 76, 73, 71, 69}, {83, 77, 73, 63}, {81, 80, 77, 76, 75, 71, 68}, {88, 83, 80, 79, 77, 73, 72, 69}, {100, 83, 81, 79, 78, 72, 70}, {100, 99, 87, 86, 83, 81, 80, 77, 76}, {88, 82, 80, 79, 77, 72, 69}, {100, 88, 87, 80, 76, 71}, {100, 99, 86, 83, 81, 80, 77, 76}, {88, 82, 80, 77, 72, 69}, {86, 83, 82, 79, 77, 69}, {100, 99, 86, 85, 83, 81, 76}, {100, 82, 72}, {100, 99, 97, 96, 95, 90, 89, 87, 85, 84}, {96, 93, 88, 87, 84, 82, 80}, {79, 72}, {99, 97, 96, 95, 94, 90, 89, 86, 85}, {100, 98, 97, 96, 95, 93, 87, 84, 82}, {100, 98, 96, 89, 87, 77}, {99, 98, 90, 86, 84, 83}, {97, 90, 84, 82, 79}, {97, 91, 90, 84}, {90, 89, 84}, {96, 95, 93, 92, 91}, {95, 91, 85}, {96, 93, 91}, {92, 89}, {95, 89}, {94, 92}, {98, 92}, {93, 91}, {94, 91}, {97, 91}, {91}, {93}, {}, {}, {}, {}, {}, {}, {}, {}, {}, {}];
n_opt = 300;
dur = [1, 2, 8, 9, 10, 10, 1, 4, 8, 4, 7, 9, 1, 1, 6, 2, 7, 8, 2, 3, 6, 6, 7, 8, 6, 7, 10, 1, 2, 2, 5, 7, 8, 8, 8, 9, 2, 5, 10, 1, 5, 9, 4, 4, 10, 2, 4, 6, 7, 8, 8, 1, 6, 10, 2, 3, 8, 2, 3, 9, 2, 5, 8, 3, 4, 7, 2, 3, 10, 2, 3, 9, 2, 3, 5, 3, 7, 10, 1, 3, 4, 6, 9, 10, 1, 2, 3, 4, 8, 10, 4, 6, 10, 1, 3, 6, 2, 7, 7, 1, 3, 5, 1, 8, 8, 2, 5, 5, 2, 3, 9, 3, 3, 6, 3, 6, 8, 4, 8, 9, 1, 5, 6, 5, 6, 8, 7, 7, 7, 3, 4, 6, 1, 3, 9, 5, 6, 10, 9, 10, 10, 2, 6, 9, 4, 8, 10, 3, 10, 10, 1, 3, 6, 5, 7, 7, 2, 4, 5, 2, 8, 9, 3, 3, 4, 2, 2, 8, 1, 6, 10, 6, 10, 10, 2, 2, 7, 7, 9, 10, 2, 7, 8, 1, 8, 9, 4, 6, 7, 2, 3, 8, 1, 4, 6, 2, 9, 10, 3, 4, 4, 5, 6, 10, 6, 7, 9, 3, 7, 10, 1, 3, 8, 3, 4, 8, 2, 3, 6, 6, 8, 10, 2, 4, 5, 1, 3, 8, 1, 1, 7, 4, 5, 8, 1, 3, 8, 3, 4, 8, 2, 3, 5, 3, 4, 6, 1, 4, 6, 4, 5, 6, 8, 10, 10, 4, 4, 10, 5, 5, 9, 4, 6, 7, 2, 8, 8, 1, 3, 6, 2, 5, 6, 1, 9, 10, 3, 5, 6, 5, 5, 10, 7, 7, 8, 4, 5, 8, 6, 8, 9, 1, 2, 10, 1, 3, 9, 3, 6, 10];
rreq = [|0, 0, 0, 0, 2, 0, 0, 3, 0, 0, 4, 3, 0, 3, 2, 0, 0, 2, 4, 0, 0, 4, 3, 2, 2, 0, 0, 0, 3, 3, 3, 3, 2, 5, 5, 5, 4, 4, 3, 5, 4, 4, 3, 0, 0, 0, 0, 1, 2, 2, 2, 0, 1, 0, 0, 0, 1, 0, 3, 2, 4, 0, 3, 5, 4, 4, 0, 0, 0, 0, 4, 0, 1, 0, 1, 3, 3, 0, 4, 0, 0, 0, 5, 5, 0, 1, 0, 5, 0, 0, 3, 0, 0, 3, 3, 3, 2, 2, 0, 5, 3, 0, 0, 1, 1, 0, 4, 0, 0, 0, 2, 4, 0, 0, 5, 0, 2, 4, 2, 0, 0, 3, 0, 0, 3, 0, 0, 5, 5, 0, 0, 2, 5, 0, 4, 0, 0, 1, 1, 0, 1, 4, 0, 0, 0, 0, 0, 4, 2, 0, 0, 0, 1, 0, 0, 4, 0, 0, 2, 2, 0, 1, 0, 0, 0, 5, 0, 2, 0, 3, 0, 4, 4, 0, 0, 1, 1, 0, 0, 5, 4, 4, 4, 5, 0, 0, 0, 0, 0, 4, 0, 4, 5, 5, 0, 4, 4, 4, 2, 0, 2, 4, 0, 4, 0, 0, 2, 0, 1, 1, 3, 0, 3, 2, 2, 0, 0, 0, 3, 4, 0, 0, 4, 0, 0, 3, 0, 0, 0, 3, 3, 3, 0, 3, 0, 0, 1, 2, 2, 0, 0, 2, 2, 0, 2, 2, 0, 3, 0, 2, 0, 2, 2, 0, 2, 0, 3, 1, 0, 4, 0, 4, 0, 0, 0, 0, 0, 0, 3, 0, 5, 3, 2, 0, 3, 2, 0, 0, 0, 0, 3, 0, 0, 2, 2, 0, 0, 0, 0, 0, 0, 0, 0, 0, 0, 1, 0, 0, 0, 3
 |4, 2, 1, 5, 0, 3, 1, 0, 1, 2, 0, 0, 5, 0, 0, 3, 2, 0, 0, 4, 3, 0, 0, 0, 0, 1, 1, 5, 0, 0, 0, 0, 0, 0, 0, 0, 0, 0, 0, 0, 0, 0, 0, 4, 2, 4, 2, 0, 0, 0, 0, 2, 0, 1, 3, 1, 0, 5, 0, 0, 0, 2, 0, 0, 0, 0, 3, 3, 3, 5, 0, 1, 0, 4, 0, 0, 0, 2, 0, 3, 1, 3, 0, 0, 1, 0, 1, 0, 4, 3, 0, 4, 3, 0, 0, 0, 0, 0, 3, 0, 0, 2, 3, 0, 0, 2, 0, 1, 4, 4, 0, 0, 3, 2, 0, 2, 0, 0, 0, 2, 1, 0, 1, 2, 0, 1, 3, 0, 0, 4, 4, 0, 0, 2, 0, 5, 4, 0, 0, 3, 0, 0, 5, 5, 2, 2, 2, 0, 0, 2, 4, 2, 0, 2, 2, 0, 4, 4, 0, 0, 2, 0, 3, 1, 1, 0, 3, 0, 3, 0, 2, 0, 0, 3, 3, 0, 0, 3, 2, 0, 0, 0, 0, 0, 3, 3, 3, 3, 1, 0, 3, 0, 0, 0, 2, 0, 0, 0, 0, 2, 0, 0, 4, 0, 1, 1, 0, 3, 0, 0, 0, 2, 0, 0, 0, 1, 2, 2, 0, 0, 3, 3, 0, 2, 2, 0, 3, 3, 5, 0, 0, 0, 1, 0, 4, 3, 0, 0, 0, 2, 4, 0, 0, 2, 0, 0, 3, 0, 1, 0, 4, 0, 0, 3, 0, 5, 0, 0, 5, 0, 3, 0, 3, 3, 2, 1, 1, 5, 0, 3, 0, 0, 0, 4, 0, 0, 3, 3, 3, 3, 0, 2, 5, 0, 0, 3, 3, 3, 2, 2, 2, 4, 4, 3, 3, 0, 2, 5, 4, 0
 |0, 0, 0, 0, 5, 0, 0, 1, 0, 3, 2, 2, 6, 5, 3, 0, 3, 2, 0, 3, 0, 9, 8, 7, 9, 7, 5, 7, 0, 4, 0, 0, 0, 0, 4, 0, 0, 7, 0, 0, 0, 0, 0, 8, 0, 0, 0, 0, 0, 4, 0, 8, 8, 8, 0, 0, 0, 0, 1, 0, 0, 6, 0, 1, 1, 0, 0, 7, 5, 0, 5, 0, 0, 0, 3, 8, 7, 0, 7, 5, 4, 2, 1, 0, 10, 0, 0, 1, 0, 0, 10, 0, 0, 0, 2, 1, 10, 0, 10, 5, 0, 0, 0, 0, 3, 10, 5, 3, 10, 8, 0, 8, 0, 0, 0, 0, 3, 0, 2, 0, 0, 0, 0, 0, 9, 0, 0, 3, 0, 5, 4, 5, 7, 5, 3, 0, 5, 5, 0, 4, 0, 9, 5, 4, 5, 3, 1, 7, 0, 5, 6, 0, 2, 6, 0, 2, 2, 0, 0, 8, 0, 1, 6, 0, 3, 0, 6, 0, 0, 3, 0, 0, 5, 0, 6, 0, 0, 8, 0, 0, 8, 7, 6, 0, 0, 0, 7, 6, 0, 0, 4, 3, 0, 0, 0, 4, 3, 2, 5, 0, 0, 0, 7, 6, 4, 3, 4, 0, 0, 3, 0, 0, 0, 10, 6, 0, 0, 0, 0, 0, 0, 0, 0, 4, 2, 0, 0, 2, 0, 0, 3, 0, 5, 0, 3, 0, 0, 7, 0, 5, 4, 0, 2, 0, 4, 1, 6, 6, 3, 0, 5, 4, 0, 9, 9, 0, 4, 3, 0, 4, 3, 0, 0, 0, 0, 6, 0, 0, 0, 0, 0, 5, 4, 0, 4, 0, 0, 0, 0, 0, 4, 0, 0, 0, 0, 4, 0, 2, 5, 4, 3, 8, 5, 4, 0, 8, 0, 6, 0, 1
 |5, 5, 2, 8, 0, 6, 5, 0, 1, 0, 0, 0, 0, 0, 0, 8, 0, 0, 4, 0, 2, 0, 0, 0, 0, 0, 0, 0, 5, 0, 9, 7, 7, 6, 0, 2, 3, 0, 2, 9, 6, 5, 7, 0, 3, 6, 5, 5, 10, 0, 9, 0, 0, 0, 8, 8, 6, 6, 0, 1, 4, 0, 2, 0, 0, 5, 6, 0, 0, 9, 0, 6, 6, 5, 0, 0, 0, 2, 0, 0, 0, 0, 0, 4, 0, 2, 1, 0, 6, 4, 0, 3, 3, 7, 0, 0, 0, 2, 0, 0, 5, 4, 2, 2, 0, 0, 0, 0, 0, 0, 2, 0, 6, 2, 7, 6, 0, 7, 0, 5, 9, 7, 6, 6, 0, 4, 2, 0, 1, 0, 0, 0, 0, 0, 0, 8, 0, 0, 10, 0, 4, 0, 0, 0, 0, 0, 0, 0, 3, 0, 0, 4, 0, 0, 7, 0, 0, 7, 6, 0, 5, 0, 0, 6, 0, 7, 0, 3, 9, 0, 5, 4, 0, 4, 0, 7, 5, 0, 3, 2, 0, 0, 0, 8, 6, 5, 0, 0, 2, 8, 0, 0, 8, 6, 5, 0, 0, 0, 0, 4, 2, 1, 0, 0, 0, 0, 0, 8, 8, 0, 5, 5, 3, 0, 0, 3, 7, 5, 3, 7, 5, 2, 8, 0, 0, 5, 5, 0, 6, 4, 0, 8, 0, 4, 0, 4, 1, 0, 4, 0, 0, 9, 0, 6, 0, 0, 0, 0, 0, 4, 0, 0, 2, 0, 0, 6, 0, 0, 9, 0, 0, 3, 2, 1, 5, 0, 3, 8, 3, 2, 2, 0, 0, 4, 0, 4, 6, 5, 4, 5, 0, 4, 4, 3, 2, 0, 2, 0, 0, 0, 0, 0, 0, 0, 5, 0, 2, 0, 5, 0|];